281 5
10 10 10 10 10 

0 0 0 0 0 0 1 2 
0 0 0 0 0 0 3 3 4 5 
2 0 0 0 1 0 4 9 8 7 6 
2 0 0 0 3 0 4 12 10 9 6 
1 0 0 0 1 0 3 8 7 6 
7 0 0 0 1 0 1 11 
4 0 0 0 5 0 1 12 
7 0 0 0 4 0 1 11 
3 0 0 0 1 0 1 11 
1 0 0 0 2 0 1 11 
2 0 0 0 2 0 1 13 
7 0 0 0 5 0 1 13 
0 0 0 0 0 0 4 14 46 78 90 
0 0 0 0 0 0 6 15 16 17 18 20 44 
7 1 0 0 1 1 4 28 22 21 19 
4 1 0 0 1 3 5 43 34 26 23 22 
8 6 0 0 1 3 5 34 33 28 26 23 
2 1 0 0 2 2 5 41 37 33 26 23 
5 4 0 0 1 2 4 37 34 33 23 
6 1 0 0 2 3 5 42 38 29 28 25 
2 3 0 0 3 3 3 38 25 24 
3 5 0 0 1 1 5 38 37 33 32 29 
5 1 0 0 4 2 2 38 24 
10 2 0 0 4 3 3 40 32 29 
8 6 0 0 3 5 3 37 32 30 
9 2 0 0 2 2 2 39 27 
5 4 0 0 1 3 1 29 
1 2 0 0 3 4 2 37 31 
3 1 0 0 4 1 1 30 
8 2 0 0 3 2 1 31 
6 2 0 0 3 2 1 35 
6 2 0 0 1 3 1 36 
8 2 0 0 1 4 1 39 
10 5 0 0 4 2 1 39 
6 1 0 0 4 3 1 45 
7 4 0 0 1 2 1 45 
10 3 0 0 3 4 1 45 
4 3 0 0 3 2 1 45 
4 2 0 0 3 1 1 45 
1 2 0 0 4 2 1 45 
1 1 0 0 3 2 1 45 
8 1 0 0 4 4 1 45 
1 3 0 0 2 2 1 45 
7 2 0 0 3 2 1 45 
0 0 0 0 0 0 1 270 
0 0 0 0 0 0 6 47 48 49 50 52 76 
1 1 1 0 1 0 4 75 57 54 51 
8 1 1 0 2 0 4 59 58 57 51 
9 4 2 0 2 0 4 59 54 53 51 
1 2 1 0 2 0 3 61 57 51 
10 4 3 0 4 0 3 67 63 55 
2 1 2 0 3 0 4 74 73 59 58 
8 2 4 0 3 0 3 72 58 56 
3 4 4 0 5 0 6 73 71 70 67 66 62 
3 1 5 0 3 0 1 56 
9 3 4 0 1 0 5 73 71 70 66 62 
3 2 6 0 2 0 2 67 60 
10 1 5 0 2 0 3 71 66 64 
6 1 3 0 4 0 3 71 70 62 
2 4 3 0 1 0 1 62 
9 2 2 0 2 0 2 70 65 
1 4 2 0 3 0 1 64 
3 2 1 0 4 0 2 72 69 
3 4 2 0 1 0 1 65 
1 1 2 0 4 0 1 68 
7 1 1 0 3 0 1 69 
10 1 1 0 2 0 1 72 
4 3 2 0 4 0 1 77 
5 7 2 0 1 0 1 77 
5 3 2 0 2 0 1 77 
5 3 3 0 4 0 1 77 
3 2 2 0 2 0 1 77 
2 2 2 0 2 0 1 77 
4 4 4 0 2 0 1 77 
8 2 2 0 2 0 1 77 
9 3 1 0 2 0 1 77 
0 0 0 0 0 0 1 270 
0 0 0 0 0 0 3 79 80 81 
10 0 0 0 0 1 3 84 83 82 
1 0 0 0 0 3 3 84 83 82 
9 0 0 0 0 1 2 83 82 
6 0 0 0 0 3 4 88 87 86 85 
3 0 0 0 0 2 4 88 87 86 85 
2 0 0 0 0 1 4 88 87 86 85 
2 0 0 0 0 1 1 89 
10 0 0 0 0 6 1 89 
5 0 0 0 0 3 1 89 
9 0 0 0 0 4 1 89 
0 0 0 0 0 0 5 122 144 166 188 210 
0 0 0 0 0 0 6 91 92 93 94 95 115 
10 0 0 1 1 1 4 109 98 97 96 
9 0 0 3 1 2 5 109 104 102 97 96 
5 0 0 2 4 2 3 102 97 96 
4 0 0 3 3 2 3 106 98 96 
8 0 0 1 3 4 5 110 108 106 103 98 
3 0 0 1 1 2 3 103 100 99 
1 0 0 2 2 1 2 106 101 
10 0 0 3 2 2 2 104 102 
8 0 0 2 4 2 2 108 105 
2 0 0 2 1 2 2 108 105 
2 0 0 3 5 3 2 108 105 
4 0 0 1 1 3 1 105 
2 0 0 3 1 5 1 105 
5 0 0 4 2 1 1 105 
2 0 0 4 3 2 6 120 119 118 114 113 107 
10 0 0 3 3 2 2 118 107 
9 0 0 1 3 3 2 116 111 
9 0 0 3 1 1 3 119 118 116 
8 0 0 2 4 7 2 118 117 
9 0 0 2 2 4 2 119 116 
2 0 0 3 4 2 1 112 
10 0 0 3 3 1 1 117 
9 0 0 2 3 2 1 116 
2 0 0 4 3 2 1 116 
2 0 0 3 2 2 1 117 
4 0 0 4 2 2 1 121 
7 0 0 2 2 2 1 121 
6 0 0 2 4 4 1 121 
3 0 0 4 1 3 1 121 
3 0 0 2 4 4 1 121 
0 0 0 0 0 0 1 270 
0 0 0 0 0 0 6 123 124 125 127 128 131 
9 0 1 0 1 0 3 136 130 126 
1 0 4 0 2 0 4 142 141 130 129 
9 0 2 0 1 0 4 141 135 130 129 
10 0 3 0 3 0 4 142 141 133 129 
6 0 3 0 1 0 3 141 133 129 
2 0 1 0 3 0 2 141 130 
3 0 2 0 5 0 4 140 137 134 132 
6 0 1 0 1 0 4 140 137 133 132 
2 0 3 0 1 0 3 142 141 135 
4 0 2 0 1 0 1 138 
7 0 3 0 3 0 1 139 
10 0 4 0 4 0 1 139 
1 0 3 0 3 0 1 137 
7 0 2 0 2 0 1 138 
3 0 1 0 3 0 1 143 
10 0 5 0 3 0 1 143 
6 0 1 0 3 0 1 143 
5 0 3 0 3 0 1 143 
8 0 3 0 5 0 1 143 
5 0 3 0 2 0 1 143 
0 0 0 0 0 0 1 270 
0 0 0 0 0 0 6 145 147 148 151 152 156 
6 0 1 1 0 0 2 155 146 
7 0 2 5 0 0 3 164 153 149 
2 0 1 2 0 0 2 155 149 
10 0 1 2 0 0 2 157 150 
1 0 1 2 0 0 4 163 160 158 154 
8 0 2 6 0 0 4 164 163 161 153 
6 0 3 2 0 0 3 162 155 153 
3 0 3 2 0 0 2 157 153 
2 0 3 3 0 0 3 160 159 158 
5 0 3 2 0 0 3 162 161 159 
4 0 1 2 0 0 2 159 157 
3 0 4 4 0 0 2 164 158 
6 0 5 4 0 0 1 158 
2 0 4 2 0 0 1 165 
3 0 2 2 0 0 1 165 
1 0 2 2 0 0 1 165 
10 0 3 1 0 0 1 165 
7 0 3 2 0 0 1 165 
10 0 1 2 0 0 1 165 
7 0 5 2 0 0 1 165 
0 0 0 0 0 0 1 270 
0 0 0 0 0 0 9 167 168 169 170 174 175 176 177 186 
3 0 1 1 0 0 5 185 184 183 182 173 
7 0 3 5 0 0 4 185 181 180 171 
6 0 3 2 0 0 2 181 172 
5 0 2 2 0 0 2 181 173 
5 0 2 1 0 0 3 183 182 178 
9 0 3 2 0 0 1 173 
2 0 3 3 0 0 2 180 178 
6 0 2 1 0 0 2 182 178 
6 0 3 4 0 0 2 180 178 
6 0 1 3 0 0 2 184 181 
4 0 3 4 0 0 1 178 
6 0 4 3 0 0 1 179 
7 0 2 1 0 0 1 187 
8 0 2 1 0 0 1 187 
2 0 2 2 0 0 1 187 
3 0 5 2 0 0 1 187 
6 0 4 2 0 0 1 187 
6 0 1 3 0 0 1 187 
3 0 1 4 0 0 1 187 
4 0 3 4 0 0 1 187 
0 0 0 0 0 0 1 270 
0 0 0 0 0 0 5 189 190 191 192 197 
4 0 0 1 1 0 4 200 199 196 193 
9 0 0 1 2 0 4 200 199 196 193 
6 0 0 2 3 0 4 208 199 196 194 
3 0 0 2 2 0 5 207 200 199 196 195 
5 0 0 4 2 0 3 208 207 195 
2 0 0 2 2 0 2 207 195 
9 0 0 5 4 0 4 205 202 201 198 
10 0 0 2 3 0 4 205 202 201 198 
9 0 0 4 1 0 4 208 207 200 199 
1 0 0 4 1 0 2 206 204 
10 0 0 3 5 0 2 205 203 
3 0 0 1 3 0 2 204 203 
2 0 0 2 3 0 1 203 
5 0 0 1 2 0 1 203 
5 0 0 2 3 0 1 209 
3 0 0 1 3 0 1 209 
3 0 0 4 2 0 1 209 
4 0 0 4 3 0 1 209 
8 0 0 1 2 0 1 209 
6 0 0 4 3 0 1 209 
0 0 0 0 0 0 1 270 
0 0 0 0 0 0 3 211 214 215 
10 0 1 0 0 0 2 213 212 
8 0 3 0 0 0 5 220 219 218 217 216 
6 0 2 0 0 0 2 220 219 
10 0 3 0 0 0 2 218 216 
9 0 4 0 0 0 2 217 216 
6 0 3 0 0 0 1 221 
1 0 2 0 0 0 1 221 
4 0 1 0 0 0 1 221 
7 0 4 0 0 0 1 221 
1 0 2 0 0 0 1 221 
0 0 0 0 0 0 4 222 234 246 258 
0 0 0 0 0 0 7 223 224 228 229 230 231 232 
9 0 0 1 0 0 2 227 226 
3 0 0 4 0 0 1 225 
1 0 0 3 0 0 1 226 
9 0 0 2 0 0 1 233 
3 0 0 3 0 0 1 233 
3 0 0 5 0 0 1 233 
5 0 0 2 0 0 1 233 
4 0 0 2 0 0 1 233 
3 0 0 2 0 0 1 233 
10 0 0 1 0 0 1 233 
0 0 0 0 0 0 1 270 
0 0 0 0 0 0 5 235 236 239 240 244 
7 1 0 0 0 0 3 243 241 237 
7 5 0 0 0 0 2 242 238 
9 3 0 0 0 0 1 242 
10 4 0 0 0 0 1 241 
3 1 0 0 0 0 1 241 
1 2 0 0 0 0 1 241 
3 1 0 0 0 0 1 245 
5 3 0 0 0 0 1 245 
2 3 0 0 0 0 1 245 
8 2 0 0 0 0 1 245 
0 0 0 0 0 0 1 270 
0 0 0 0 0 0 3 247 249 251 
8 0 0 1 0 0 3 256 250 248 
4 0 0 3 0 0 3 255 254 253 
2 0 0 5 0 0 2 254 252 
1 0 0 2 0 0 2 255 253 
5 0 0 3 0 0 2 254 253 
10 0 0 2 0 0 1 253 
9 0 0 2 0 0 1 257 
3 0 0 1 0 0 1 257 
3 0 0 4 0 0 1 257 
10 0 0 2 0 0 1 257 
0 0 0 0 0 0 1 270 
0 0 0 0 0 0 3 259 262 263 
2 0 0 0 1 0 2 261 260 
9 0 0 0 3 0 5 268 267 266 265 264 
5 0 0 0 1 0 2 267 266 
4 0 0 0 2 0 2 265 264 
6 0 0 0 3 0 1 264 
7 0 0 0 3 0 1 269 
4 0 0 0 4 0 1 269 
7 0 0 0 2 0 1 269 
4 0 0 0 1 0 1 269 
10 0 0 0 5 0 1 269 
0 0 0 0 0 0 1 270 
0 0 0 0 0 0 3 271 272 273 
2 0 0 0 0 1 4 278 277 275 274 
7 0 0 0 0 2 4 280 278 276 275 
6 0 0 0 0 1 3 279 277 275 
8 0 0 0 0 3 1 276 
7 0 0 0 0 4 1 281 
3 0 0 0 0 3 1 281 
8 0 0 0 0 3 1 281 
6 0 0 0 0 3 1 281 
6 0 0 0 0 4 1 281 
5 0 0 0 0 1 1 281 
0 0 0 0 0 0 0 
